3 
4  37 55 
5  17 33 49 
6  04 19 34 49 
7  04 19 34 49 
8  04 19 34 49 
9  04 19 34 50 
10  05 20 35 50 
11  05 20 35 50 
12  05 20 35 50 
13  06 21 36 51 
14  06 21 36 51 
15  05 20 35 50 
16  05 20 35 50 
17  05 20 35 50 
18  05 20 35 51 
19  05 20 35 50 
20  05 20 35 50 
21  05 20 35 50 
22  05 24 39 54 
23 
0 
